40913 56094
3783 43408
35083 63321
33679 30664
4467 54618
25939 18913
48220 17946
41239 49216
11767 58746
23004 43871
1340 52965
40014 16367
7125 47586
57098 15695
28884 62633
16602 46552
12088 59581
35220 11871
64361 8856
39445 44839
3679 57416
23577 29384
19534 63117
47138 29052
13562 18386
9133 8564
3448 63670
